10
0 26 6 10 58 57 97 26 58 19 
95 0 80 92 37 75 5 37 84 55 
56 97 0 56 87 5 55 52 51 32 
2 62 17 0 11 24 68 80 75 28 
4 33 67 94 0 36 24 61 22 57 
63 19 25 89 33 0 57 7 30 50 
35 86 33 72 78 33 0 15 93 42 
85 42 63 98 20 55 25 0 3 98 
23 24 70 33 20 40 13 91 0 9 
1 56 83 28 4 64 4 39 62 0 
